% Logging successfully configured
%%%mzn-stat: initTime=0.016036327
%%%mzn-stat: objective=563
%%%mzn-stat: nodes=7277
%%%mzn-stat: restarts=0
%%%mzn-stat: peakDepth=906
%%%mzn-stat: solveTime=0.224024039
%%%mzn-stat: variables=1591
%%%mzn-stat: propagators=1207
%%%mzn-stat: failures=393
%%%mzn-stat: propagations=47244
%%%mzn-stat: nogoods=393
%%%mzn-stat: numAtomicConstraintsPropagated=0
%%%mzn-stat: allDifferentNumber1TotalHallSetSize=1020
%%%mzn-stat: allDifferentNumber1NumberOfConflicts=392
%%%mzn-stat: allDifferentNumber1MaxHallSetSize=48
%%%mzn-stat: allDifferentNumber1PropagationsTotal=9633
%%%mzn-stat: allDifferentNumber1PropagationsThatFoundConflict=392
%%%mzn-stat: circuitNumber2PropagationsThatFoundConflict=0
%%%mzn-stat: circuitNumber2TotalFixedEdgesAtConflict=0
%%%mzn-stat: circuitNumber2NumberOfConflicts=0
%%%mzn-stat: circuitNumber2PropagationsThatPruned=15
%%%mzn-stat: circuitNumber2PropagationsTotal=6205
%%%mzn-stat: AverageConflictSize=2.5674300254452924
%%%mzn-stat: NumUnitNogoodsLearned=0
%%%mzn-stat: AverageLearnedNogoodLength=2.559796437659033
%%%mzn-stat: AverageBacktrackAmount=0
%%%mzn-stat: AverageLbd=2.5419847328244276
%%%mzn-stat: 2AutonomousSearchNumBackupCalled=863
%%%mzn-stat: 2AutonomousSearchNumPredicatesRemoved=0
%%%mzn-stat: 2AutonomousSearchNumCalls=864
%%%mzn-stat: 2AutonomousSearchNumPredicatesAdded=547
%%%mzn-stat: 2AutonomousSearchAverageSizeOfHeap=0.6331018518518519
%%%mzn-stat: 2AutonomousSearchNumAssignedPredicatesEncountered=547
%%%mzn-stat-end
maxleg = 563;
succ = array1d(1..50,[2, 12, 4, 6, 3, 7, 8, 9, 10, 11, 14, 13, 19, 17, 5, 15, 20, 16, 23, 24, 1, 18, 25, 28, 22, 27, 29, 30, 21, 31, 35, 34, 36, 39, 42, 37, 44, 26, 43, 49, 48, 40, 46, 41, 38, 50, 32, 45, 47, 33]);
% time elapsed: 1.73 s
----------
%%%mzn-stat: initTime=0.016036327
%%%mzn-stat: objective=543
%%%mzn-stat: nodes=9263
%%%mzn-stat: restarts=0
%%%mzn-stat: peakDepth=906
%%%mzn-stat: solveTime=0.269555935
%%%mzn-stat: variables=1591
%%%mzn-stat: propagators=1207
%%%mzn-stat: failures=507
%%%mzn-stat: propagations=57331
%%%mzn-stat: nogoods=507
%%%mzn-stat: numAtomicConstraintsPropagated=0
%%%mzn-stat: allDifferentNumber1TotalHallSetSize=1854
%%%mzn-stat: allDifferentNumber1NumberOfConflicts=504
%%%mzn-stat: allDifferentNumber1MaxHallSetSize=48
%%%mzn-stat: allDifferentNumber1PropagationsTotal=11339
%%%mzn-stat: allDifferentNumber1PropagationsThatFoundConflict=504
%%%mzn-stat: circuitNumber2PropagationsThatFoundConflict=0
%%%mzn-stat: circuitNumber2TotalFixedEdgesAtConflict=0
%%%mzn-stat: circuitNumber2NumberOfConflicts=0
%%%mzn-stat: circuitNumber2PropagationsThatPruned=24
%%%mzn-stat: circuitNumber2PropagationsTotal=7321
%%%mzn-stat: AverageConflictSize=4.256410256410256
%%%mzn-stat: NumUnitNogoodsLearned=0
%%%mzn-stat: AverageLearnedNogoodLength=4.552268244575937
%%%mzn-stat: AverageBacktrackAmount=0
%%%mzn-stat: AverageLbd=4.238658777120316
%%%mzn-stat: 2AutonomousSearchNumBackupCalled=1693
%%%mzn-stat: 2AutonomousSearchNumPredicatesRemoved=0
%%%mzn-stat: 2AutonomousSearchNumCalls=1695
%%%mzn-stat: 2AutonomousSearchNumPredicatesAdded=893
%%%mzn-stat: 2AutonomousSearchAverageSizeOfHeap=0.7604719764011799
%%%mzn-stat: 2AutonomousSearchNumAssignedPredicatesEncountered=1289
%%%mzn-stat-end
maxleg = 543;
succ = array1d(1..50,[2, 12, 4, 6, 3, 7, 8, 9, 10, 11, 14, 13, 19, 20, 5, 15, 32, 16, 23, 17, 1, 18, 25, 28, 22, 27, 29, 21, 30, 31, 24, 34, 36, 39, 42, 35, 33, 45, 43, 26, 44, 46, 47, 37, 48, 50, 49, 41, 38, 40]);
% time elapsed: 1.77 s
----------
%%%mzn-stat: initTime=0.016036327
%%%mzn-stat: objective=517
%%%mzn-stat: nodes=10186
%%%mzn-stat: restarts=0
%%%mzn-stat: peakDepth=906
%%%mzn-stat: solveTime=0.274719994
%%%mzn-stat: variables=1591
%%%mzn-stat: propagators=1207
%%%mzn-stat: failures=520
%%%mzn-stat: propagations=59559
%%%mzn-stat: nogoods=520
%%%mzn-stat: numAtomicConstraintsPropagated=0
%%%mzn-stat: allDifferentNumber1TotalHallSetSize=1950
%%%mzn-stat: allDifferentNumber1NumberOfConflicts=516
%%%mzn-stat: allDifferentNumber1MaxHallSetSize=48
%%%mzn-stat: allDifferentNumber1PropagationsTotal=11479
%%%mzn-stat: allDifferentNumber1PropagationsThatFoundConflict=516
%%%mzn-stat: circuitNumber2PropagationsThatFoundConflict=1
%%%mzn-stat: circuitNumber2TotalFixedEdgesAtConflict=45
%%%mzn-stat: circuitNumber2NumberOfConflicts=1
%%%mzn-stat: circuitNumber2PropagationsThatPruned=25
%%%mzn-stat: circuitNumber2PropagationsTotal=7403
%%%mzn-stat: AverageConflictSize=4.540384615384616
%%%mzn-stat: NumUnitNogoodsLearned=0
%%%mzn-stat: AverageLearnedNogoodLength=4.836538461538462
%%%mzn-stat: AverageBacktrackAmount=0
%%%mzn-stat: AverageLbd=4.482692307692307
%%%mzn-stat: 2AutonomousSearchNumBackupCalled=2536
%%%mzn-stat: 2AutonomousSearchNumPredicatesRemoved=0
%%%mzn-stat: 2AutonomousSearchNumCalls=2539
%%%mzn-stat: 2AutonomousSearchNumPredicatesAdded=1025
%%%mzn-stat: 2AutonomousSearchAverageSizeOfHeap=0.8113430484442694
%%%mzn-stat: 2AutonomousSearchNumAssignedPredicatesEncountered=2060
%%%mzn-stat-end
maxleg = 517;
succ = array1d(1..50,[2, 12, 4, 6, 3, 7, 8, 9, 10, 11, 14, 13, 19, 20, 5, 15, 32, 16, 23, 24, 1, 18, 25, 28, 22, 27, 29, 30, 21, 31, 35, 34, 36, 39, 42, 37, 44, 17, 43, 26, 48, 46, 47, 41, 38, 50, 49, 45, 40, 33]);
% time elapsed: 1.77 s
----------
%%%mzn-stat: initTime=0.016036327
%%%mzn-stat: objective=488
%%%mzn-stat: nodes=11042
%%%mzn-stat: restarts=0
%%%mzn-stat: peakDepth=906
%%%mzn-stat: solveTime=0.278749529
%%%mzn-stat: variables=1591
%%%mzn-stat: propagators=1207
%%%mzn-stat: failures=527
%%%mzn-stat: propagations=61624
%%%mzn-stat: nogoods=527
%%%mzn-stat: numAtomicConstraintsPropagated=0
%%%mzn-stat: allDifferentNumber1TotalHallSetSize=1977
%%%mzn-stat: allDifferentNumber1NumberOfConflicts=523
%%%mzn-stat: allDifferentNumber1MaxHallSetSize=48
%%%mzn-stat: allDifferentNumber1PropagationsTotal=11572
%%%mzn-stat: allDifferentNumber1PropagationsThatFoundConflict=523
%%%mzn-stat: circuitNumber2PropagationsThatFoundConflict=1
%%%mzn-stat: circuitNumber2TotalFixedEdgesAtConflict=45
%%%mzn-stat: circuitNumber2NumberOfConflicts=1
%%%mzn-stat: circuitNumber2PropagationsThatPruned=28
%%%mzn-stat: circuitNumber2PropagationsTotal=7463
%%%mzn-stat: AverageConflictSize=4.554079696394687
%%%mzn-stat: NumUnitNogoodsLearned=0
%%%mzn-stat: AverageLearnedNogoodLength=4.8652751423149905
%%%mzn-stat: AverageBacktrackAmount=0
%%%mzn-stat: AverageLbd=4.502846299810247
%%%mzn-stat: 2AutonomousSearchNumBackupCalled=3334
%%%mzn-stat: 2AutonomousSearchNumPredicatesRemoved=0
%%%mzn-stat: 2AutonomousSearchNumCalls=3338
%%%mzn-stat: 2AutonomousSearchNumPredicatesAdded=1076
%%%mzn-stat: 2AutonomousSearchAverageSizeOfHeap=0.8487118034751349
%%%mzn-stat: 2AutonomousSearchNumAssignedPredicatesEncountered=2833
%%%mzn-stat-end
maxleg = 488;
succ = array1d(1..50,[2, 12, 4, 6, 3, 7, 8, 9, 10, 11, 14, 13, 19, 20, 5, 15, 32, 16, 23, 24, 1, 18, 25, 28, 22, 27, 29, 30, 21, 31, 35, 34, 36, 39, 42, 37, 44, 17, 47, 26, 48, 43, 46, 41, 38, 50, 49, 45, 40, 33]);
% time elapsed: 1.78 s
----------
%%%mzn-stat: initTime=0.016036327
%%%mzn-stat: objective=464
%%%mzn-stat: nodes=11936
%%%mzn-stat: restarts=0
%%%mzn-stat: peakDepth=906
%%%mzn-stat: solveTime=0.284770277
%%%mzn-stat: variables=1591
%%%mzn-stat: propagators=1207
%%%mzn-stat: failures=562
%%%mzn-stat: propagations=64251
%%%mzn-stat: nogoods=562
%%%mzn-stat: numAtomicConstraintsPropagated=0
%%%mzn-stat: allDifferentNumber1TotalHallSetSize=2108
%%%mzn-stat: allDifferentNumber1NumberOfConflicts=557
%%%mzn-stat: allDifferentNumber1MaxHallSetSize=48
%%%mzn-stat: allDifferentNumber1PropagationsTotal=11745
%%%mzn-stat: allDifferentNumber1PropagationsThatFoundConflict=557
%%%mzn-stat: circuitNumber2PropagationsThatFoundConflict=2
%%%mzn-stat: circuitNumber2TotalFixedEdgesAtConflict=90
%%%mzn-stat: circuitNumber2NumberOfConflicts=2
%%%mzn-stat: circuitNumber2PropagationsThatPruned=33
%%%mzn-stat: circuitNumber2PropagationsTotal=7559
%%%mzn-stat: AverageConflictSize=4.604982206405694
%%%mzn-stat: NumUnitNogoodsLearned=0
%%%mzn-stat: AverageLearnedNogoodLength=5.1387900355871885
%%%mzn-stat: AverageBacktrackAmount=0
%%%mzn-stat: AverageLbd=4.642348754448399
%%%mzn-stat: 2AutonomousSearchNumBackupCalled=4135
%%%mzn-stat: 2AutonomousSearchNumPredicatesRemoved=0
%%%mzn-stat: 2AutonomousSearchNumCalls=4140
%%%mzn-stat: 2AutonomousSearchNumPredicatesAdded=1387
%%%mzn-stat: 2AutonomousSearchAverageSizeOfHeap=0.8983091787439613
%%%mzn-stat: 2AutonomousSearchNumAssignedPredicatesEncountered=3719
%%%mzn-stat-end
maxleg = 464;
succ = array1d(1..50,[2, 12, 4, 6, 3, 7, 8, 9, 10, 11, 14, 13, 19, 20, 5, 15, 32, 16, 23, 24, 1, 18, 25, 28, 22, 27, 29, 30, 21, 31, 35, 34, 36, 39, 42, 37, 44, 45, 47, 38, 40, 49, 46, 41, 48, 50, 43, 26, 17, 33]);
% time elapsed: 1.79 s
----------
%%%mzn-stat: initTime=0.016036327
%%%mzn-stat: objective=459
%%%mzn-stat: nodes=13467
%%%mzn-stat: restarts=0
%%%mzn-stat: peakDepth=906
%%%mzn-stat: solveTime=0.31409053
%%%mzn-stat: variables=1591
%%%mzn-stat: propagators=1207
%%%mzn-stat: failures=599
%%%mzn-stat: propagations=71527
%%%mzn-stat: nogoods=599
%%%mzn-stat: numAtomicConstraintsPropagated=0
%%%mzn-stat: allDifferentNumber1TotalHallSetSize=2209
%%%mzn-stat: allDifferentNumber1NumberOfConflicts=594
%%%mzn-stat: allDifferentNumber1MaxHallSetSize=48
%%%mzn-stat: allDifferentNumber1PropagationsTotal=12775
%%%mzn-stat: allDifferentNumber1PropagationsThatFoundConflict=594
%%%mzn-stat: circuitNumber2PropagationsThatFoundConflict=2
%%%mzn-stat: circuitNumber2TotalFixedEdgesAtConflict=90
%%%mzn-stat: circuitNumber2NumberOfConflicts=2
%%%mzn-stat: circuitNumber2PropagationsThatPruned=44
%%%mzn-stat: circuitNumber2PropagationsTotal=8249
%%%mzn-stat: AverageConflictSize=4.676126878130217
%%%mzn-stat: NumUnitNogoodsLearned=0
%%%mzn-stat: AverageLearnedNogoodLength=5.156928213689483
%%%mzn-stat: AverageBacktrackAmount=0
%%%mzn-stat: AverageLbd=4.575959933222037
%%%mzn-stat: 2AutonomousSearchNumBackupCalled=4965
%%%mzn-stat: 2AutonomousSearchNumPredicatesRemoved=0
%%%mzn-stat: 2AutonomousSearchNumCalls=4971
%%%mzn-stat: 2AutonomousSearchNumPredicatesAdded=1535
%%%mzn-stat: 2AutonomousSearchAverageSizeOfHeap=0.9364313015489841
%%%mzn-stat: 2AutonomousSearchNumAssignedPredicatesEncountered=4655
%%%mzn-stat-end
maxleg = 459;
succ = array1d(1..50,[2, 12, 4, 6, 3, 7, 9, 10, 8, 11, 14, 13, 19, 20, 5, 15, 32, 16, 23, 24, 1, 18, 25, 28, 22, 27, 29, 30, 21, 31, 35, 34, 36, 39, 42, 37, 44, 45, 47, 38, 40, 49, 46, 41, 48, 50, 43, 26, 17, 33]);
% time elapsed: 1.81 s
----------
%%%mzn-stat: initTime=0.016036327
%%%mzn-stat: objective=454
%%%mzn-stat: nodes=15140
%%%mzn-stat: restarts=0
%%%mzn-stat: peakDepth=906
%%%mzn-stat: solveTime=0.351831323
%%%mzn-stat: variables=1591
%%%mzn-stat: propagators=1207
%%%mzn-stat: failures=652
%%%mzn-stat: propagations=80573
%%%mzn-stat: nogoods=652
%%%mzn-stat: numAtomicConstraintsPropagated=0
%%%mzn-stat: allDifferentNumber1TotalHallSetSize=2383
%%%mzn-stat: allDifferentNumber1NumberOfConflicts=647
%%%mzn-stat: allDifferentNumber1MaxHallSetSize=48
%%%mzn-stat: allDifferentNumber1PropagationsTotal=14109
%%%mzn-stat: allDifferentNumber1PropagationsThatFoundConflict=647
%%%mzn-stat: circuitNumber2PropagationsThatFoundConflict=2
%%%mzn-stat: circuitNumber2TotalFixedEdgesAtConflict=90
%%%mzn-stat: circuitNumber2NumberOfConflicts=2
%%%mzn-stat: circuitNumber2PropagationsThatPruned=65
%%%mzn-stat: circuitNumber2PropagationsTotal=9128
%%%mzn-stat: AverageConflictSize=4.848159509202454
%%%mzn-stat: NumUnitNogoodsLearned=0
%%%mzn-stat: AverageLearnedNogoodLength=5.4447852760736195
%%%mzn-stat: AverageBacktrackAmount=0
%%%mzn-stat: AverageLbd=4.725460122699387
%%%mzn-stat: 2AutonomousSearchNumBackupCalled=5754
%%%mzn-stat: 2AutonomousSearchNumPredicatesRemoved=0
%%%mzn-stat: 2AutonomousSearchNumCalls=5761
%%%mzn-stat: 2AutonomousSearchNumPredicatesAdded=1900
%%%mzn-stat: 2AutonomousSearchAverageSizeOfHeap=0.9791702829369902
%%%mzn-stat: 2AutonomousSearchNumAssignedPredicatesEncountered=5641
%%%mzn-stat-end
maxleg = 454;
succ = array1d(1..50,[2, 12, 4, 6, 3, 7, 9, 11, 8, 14, 10, 13, 19, 20, 5, 15, 32, 16, 23, 24, 1, 18, 25, 28, 22, 27, 29, 30, 21, 31, 35, 34, 36, 39, 42, 37, 44, 45, 49, 38, 40, 47, 46, 41, 48, 50, 17, 26, 43, 33]);
% time elapsed: 1.85 s
----------
%%%mzn-stat: initTime=0.016036327
%%%mzn-stat: objective=448
%%%mzn-stat: nodes=16346
%%%mzn-stat: restarts=0
%%%mzn-stat: peakDepth=906
%%%mzn-stat: solveTime=0.372259129
%%%mzn-stat: variables=1591
%%%mzn-stat: propagators=1207
%%%mzn-stat: failures=692
%%%mzn-stat: propagations=85985
%%%mzn-stat: nogoods=692
%%%mzn-stat: numAtomicConstraintsPropagated=0
%%%mzn-stat: allDifferentNumber1TotalHallSetSize=2584
%%%mzn-stat: allDifferentNumber1NumberOfConflicts=687
%%%mzn-stat: allDifferentNumber1MaxHallSetSize=48
%%%mzn-stat: allDifferentNumber1PropagationsTotal=14807
%%%mzn-stat: allDifferentNumber1PropagationsThatFoundConflict=687
%%%mzn-stat: circuitNumber2PropagationsThatFoundConflict=2
%%%mzn-stat: circuitNumber2TotalFixedEdgesAtConflict=90
%%%mzn-stat: circuitNumber2NumberOfConflicts=2
%%%mzn-stat: circuitNumber2PropagationsThatPruned=72
%%%mzn-stat: circuitNumber2PropagationsTotal=9569
%%%mzn-stat: AverageConflictSize=4.982658959537572
%%%mzn-stat: NumUnitNogoodsLearned=0
%%%mzn-stat: AverageLearnedNogoodLength=5.754335260115607
%%%mzn-stat: AverageBacktrackAmount=0
%%%mzn-stat: AverageLbd=4.973988439306359
%%%mzn-stat: 2AutonomousSearchNumBackupCalled=6505
%%%mzn-stat: 2AutonomousSearchNumPredicatesRemoved=0
%%%mzn-stat: 2AutonomousSearchNumCalls=6513
%%%mzn-stat: 2AutonomousSearchNumPredicatesAdded=2112
%%%mzn-stat: 2AutonomousSearchAverageSizeOfHeap=1.0205742361430985
%%%mzn-stat: 2AutonomousSearchNumAssignedPredicatesEncountered=6647
%%%mzn-stat-end
maxleg = 448;
succ = array1d(1..50,[2, 12, 4, 6, 3, 7, 9, 11, 8, 14, 10, 13, 19, 20, 16, 5, 32, 15, 23, 24, 1, 18, 25, 28, 22, 27, 29, 30, 21, 31, 35, 34, 36, 39, 42, 37, 44, 45, 49, 38, 40, 47, 46, 41, 48, 50, 17, 26, 43, 33]);
% time elapsed: 1.88 s
----------
%%%mzn-stat: initTime=0.016036327
%%%mzn-stat: objective=417
%%%mzn-stat: nodes=17160
%%%mzn-stat: restarts=0
%%%mzn-stat: peakDepth=906
%%%mzn-stat: solveTime=0.379758528
%%%mzn-stat: variables=1591
%%%mzn-stat: propagators=1207
%%%mzn-stat: failures=711
%%%mzn-stat: propagations=88837
%%%mzn-stat: nogoods=711
%%%mzn-stat: numAtomicConstraintsPropagated=0
%%%mzn-stat: allDifferentNumber1TotalHallSetSize=2684
%%%mzn-stat: allDifferentNumber1NumberOfConflicts=706
%%%mzn-stat: allDifferentNumber1MaxHallSetSize=48
%%%mzn-stat: allDifferentNumber1PropagationsTotal=14981
%%%mzn-stat: allDifferentNumber1PropagationsThatFoundConflict=706
%%%mzn-stat: circuitNumber2PropagationsThatFoundConflict=2
%%%mzn-stat: circuitNumber2TotalFixedEdgesAtConflict=90
%%%mzn-stat: circuitNumber2NumberOfConflicts=2
%%%mzn-stat: circuitNumber2PropagationsThatPruned=82
%%%mzn-stat: circuitNumber2PropagationsTotal=9678
%%%mzn-stat: AverageConflictSize=5.035161744022504
%%%mzn-stat: NumUnitNogoodsLearned=0
%%%mzn-stat: AverageLearnedNogoodLength=5.876230661040788
%%%mzn-stat: AverageBacktrackAmount=0
%%%mzn-stat: AverageLbd=5.025316455696203
%%%mzn-stat: 2AutonomousSearchNumBackupCalled=7219
%%%mzn-stat: 2AutonomousSearchNumPredicatesRemoved=0
%%%mzn-stat: 2AutonomousSearchNumCalls=7228
%%%mzn-stat: 2AutonomousSearchNumPredicatesAdded=2388
%%%mzn-stat: 2AutonomousSearchAverageSizeOfHeap=1.064748201438849
%%%mzn-stat: 2AutonomousSearchNumAssignedPredicatesEncountered=7696
%%%mzn-stat-end
maxleg = 417;
succ = array1d(1..50,[2, 12, 4, 6, 3, 7, 9, 11, 8, 14, 10, 13, 19, 20, 16, 5, 32, 15, 23, 24, 1, 18, 25, 28, 22, 27, 29, 30, 21, 31, 35, 34, 36, 42, 43, 37, 44, 45, 17, 38, 40, 46, 49, 41, 48, 50, 39, 26, 47, 33]);
% time elapsed: 1.89 s
----------
%%%mzn-stat: initTime=0.016036327
%%%mzn-stat: objective=417
%%%mzn-stat: nodes=3468813
%%%mzn-stat: restarts=0
%%%mzn-stat: peakDepth=906
%%%mzn-stat: solveTime=1798.482405924
%%%mzn-stat: variables=1591
%%%mzn-stat: propagators=1207
%%%mzn-stat: failures=3358952
%%%mzn-stat: propagations=124897476
%%%mzn-stat: nogoods=3358952
%%%mzn-stat: numAtomicConstraintsPropagated=0
%%%mzn-stat: allDifferentNumber1TotalHallSetSize=9332799
%%%mzn-stat: allDifferentNumber1NumberOfConflicts=1081238
%%%mzn-stat: allDifferentNumber1MaxHallSetSize=48
%%%mzn-stat: allDifferentNumber1PropagationsTotal=7959105
%%%mzn-stat: allDifferentNumber1PropagationsThatFoundConflict=1081238
%%%mzn-stat: circuitNumber2PropagationsThatFoundConflict=625778
%%%mzn-stat: circuitNumber2TotalFixedEdgesAtConflict=29091675
%%%mzn-stat: circuitNumber2NumberOfConflicts=625778
%%%mzn-stat: circuitNumber2PropagationsThatPruned=583104
%%%mzn-stat: circuitNumber2PropagationsTotal=4292893
%%%mzn-stat: AverageConflictSize=32.46650889920428
%%%mzn-stat: NumUnitNogoodsLearned=0
%%%mzn-stat: AverageLearnedNogoodLength=55.95840012003744
%%%mzn-stat: AverageBacktrackAmount=0
%%%mzn-stat: AverageLbd=29.1642559941315
%%%mzn-stat: 2AutonomousSearchNumBackupCalled=7219
%%%mzn-stat: 2AutonomousSearchNumPredicatesRemoved=0
%%%mzn-stat: 2AutonomousSearchNumCalls=7228
%%%mzn-stat: 2AutonomousSearchNumPredicatesAdded=4133
%%%mzn-stat: 2AutonomousSearchAverageSizeOfHeap=1.064748201438849
%%%mzn-stat: 2AutonomousSearchNumAssignedPredicatesEncountered=7696
%%%mzn-stat-end
